0	126	149	145	33	147	170	57	154	195	174	
27	0	189	130	57	84	148	47	189	35	148	
95	187	0	164	87	150	170	152	119	44	53	
112	153	24	0	70	104	36	161	137	194	167	
25	168	123	35	0	125	135	99	144	122	193	
166	146	78	131	39	0	193	28	153	148	30	
25	35	39	77	31	166	0	168	169	113	63	
48	40	61	118	129	165	88	0	191	96	35	
79	179	163	177	98	194	140	138	0	133	179	
88	166	166	89	182	104	165	61	125	0	161	
32	163	40	28	197	43	109	109	42	136	0	
